CapLotSizing_PM/src/Instancias/TCLSLT/6i6p2m/NBB04.OUT
 CG ITER, OVMR, OVMRUB =           1    8505.8330078    8021.8002930
 CG ITER, OVMR, OVMRUB =           2    8021.8002930    8021.8002930
 CG ITER, OVMR, OVMRUB =           3    8021.8002930    8021.8002930
 CG ITER, OVMR, OVMRUB =           4    7883.8813477    8021.8002930
 CG ITER, OVMR, OVMRUB =           5    7832.3530273    8021.8002930
 CG ITER, OVMR, OVMRUB =           6    7790.6401367    8021.8002930
 CG ITER, OVMR, OVMRUB =           7    7757.3847656    8021.8002930
 CG ITER, OVMR, OVMRUB =           8    7752.6059570    8021.8002930
 CG ITER, OVMR, OVMRUB =           9    7731.3374023    8021.8002930
 CG ITER, OVMR, OVMRUB =          10    7729.8481445    8014.0385742
 CG ITER, OVMR, OVMRUB =          11    7725.1308594    8014.0385742
 CG ITER, OVMR, OVMRUB =          12    7719.6123047    8014.0385742
 CG ITER, OVMR, OVMRUB =          13    7719.2197266    8014.0385742
 CG ITER, OVMR, OVMRUB =          14    7719.9350586    8014.0385742
 CG ITER, OVMR, OVMRUB =          15    7719.9350586    8014.0385742
OVLB =    7719.9350586 OVLUB =    8014.0385742 TIME =       1.0100000
